outputs/c207.txt.out
filename: C207
Vehicles: 25, Capacity: 700
Total customers : 101
No of routes: 13
Route #1: 93 5 10 11 9 25
Route #2: 28 26 23 18 17 13
Route #3: 8 15 19 16 14 12 21
Route #4: 20 22 24 27 30 29 6 32 37 38 39 36 34 33 35 31
Route #5: 75 2 1 99 100 97 94 95
Route #6: 7 92 98 3 4 89 91 88 86 84 83 82 87 96
Route #7: 67 63 62 74 72 61 64 66 69 49 65 68 41 42 47 43 48
Route #8: 52 50 51 44 46 45
Route #9: 40 57
Route #10: 55 54 56 58 60 59
Route #11: 53 78 77
Route #12: 85 81
Route #13: 76 71 70 73 79 80 90
Cost 1319
